1675579
37, 53, 39, 62, 51, 35, 68, 58, 15, 9, 27, 17, 45, 2, 48, 4, 20, 65, 13, 47, 54, 1, 60, 29, 25, 41, 30, 38, 67, 7, 43, 46, 34, 55, 26, 66, 11, 64, 6, 23, 49, 19, 5, 40, 56, 32, 12, 42, 24, 61, 3, 21, 63, 16, 59, 36, 8, 50, 44, 14, 18, 10, 57, 33, 52, 22, 31, 28
